c created by edge2cnf
p cnf 500 3100
-1 -2 0
-1 -3 0
-1 -4 0
-1 -5 0
-2 -3 0
-2 -4 0
-2 -5 0
-3 -4 0
-3 -5 0
-4 -5 0
1 2 3 4 5 0
-6 -7 0
-6 -8 0
-6 -9 0
-6 -10 0
-7 -8 0
-7 -9 0
-7 -10 0
-8 -9 0
-8 -10 0
-9 -10 0
6 7 8 9 10 0
-11 -12 0
-11 -13 0
-11 -14 0
-11 -15 0
-12 -13 0
-12 -14 0
-12 -15 0
-13 -14 0
-13 -15 0
-14 -15 0
11 12 13 14 15 0
-16 -17 0
-16 -18 0
-16 -19 0
-16 -20 0
-17 -18 0
-17 -19 0
-17 -20 0
-18 -19 0
-18 -20 0
-19 -20 0
16 17 18 19 20 0
-21 -22 0
-21 -23 0
-21 -24 0
-21 -25 0
-22 -23 0
-22 -24 0
-22 -25 0
-23 -24 0
-23 -25 0
-24 -25 0
21 22 23 24 25 0
-26 -27 0
-26 -28 0
-26 -29 0
-26 -30 0
-27 -28 0
-27 -29 0
-27 -30 0
-28 -29 0
-28 -30 0
-29 -30 0
26 27 28 29 30 0
-31 -32 0
-31 -33 0
-31 -34 0
-31 -35 0
-32 -33 0
-32 -34 0
-32 -35 0
-33 -34 0
-33 -35 0
-34 -35 0
31 32 33 34 35 0
-36 -37 0
-36 -38 0
-36 -39 0
-36 -40 0
-37 -38 0
-37 -39 0
-37 -40 0
-38 -39 0
-38 -40 0
-39 -40 0
36 37 38 39 40 0
-41 -42 0
-41 -43 0
-41 -44 0
-41 -45 0
-42 -43 0
-42 -44 0
-42 -45 0
-43 -44 0
-43 -45 0
-44 -45 0
41 42 43 44 45 0
-46 -47 0
-46 -48 0
-46 -49 0
-46 -50 0
-47 -48 0
-47 -49 0
-47 -50 0
-48 -49 0
-48 -50 0
-49 -50 0
46 47 48 49 50 0
-51 -52 0
-51 -53 0
-51 -54 0
-51 -55 0
-52 -53 0
-52 -54 0
-52 -55 0
-53 -54 0
-53 -55 0
-54 -55 0
51 52 53 54 55 0
-56 -57 0
-56 -58 0
-56 -59 0
-56 -60 0
-57 -58 0
-57 -59 0
-57 -60 0
-58 -59 0
-58 -60 0
-59 -60 0
56 57 58 59 60 0
-61 -62 0
-61 -63 0
-61 -64 0
-61 -65 0
-62 -63 0
-62 -64 0
-62 -65 0
-63 -64 0
-63 -65 0
-64 -65 0
61 62 63 64 65 0
-66 -67 0
-66 -68 0
-66 -69 0
-66 -70 0
-67 -68 0
-67 -69 0
-67 -70 0
-68 -69 0
-68 -70 0
-69 -70 0
66 67 68 69 70 0
-71 -72 0
-71 -73 0
-71 -74 0
-71 -75 0
-72 -73 0
-72 -74 0
-72 -75 0
-73 -74 0
-73 -75 0
-74 -75 0
71 72 73 74 75 0
-76 -77 0
-76 -78 0
-76 -79 0
-76 -80 0
-77 -78 0
-77 -79 0
-77 -80 0
-78 -79 0
-78 -80 0
-79 -80 0
76 77 78 79 80 0
-81 -82 0
-81 -83 0
-81 -84 0
-81 -85 0
-82 -83 0
-82 -84 0
-82 -85 0
-83 -84 0
-83 -85 0
-84 -85 0
81 82 83 84 85 0
-86 -87 0
-86 -88 0
-86 -89 0
-86 -90 0
-87 -88 0
-87 -89 0
-87 -90 0
-88 -89 0
-88 -90 0
-89 -90 0
86 87 88 89 90 0
-91 -92 0
-91 -93 0
-91 -94 0
-91 -95 0
-92 -93 0
-92 -94 0
-92 -95 0
-93 -94 0
-93 -95 0
-94 -95 0
91 92 93 94 95 0
-96 -97 0
-96 -98 0
-96 -99 0
-96 -100 0
-97 -98 0
-97 -99 0
-97 -100 0
-98 -99 0
-98 -100 0
-99 -100 0
96 97 98 99 100 0
-101 -102 0
-101 -103 0
-101 -104 0
-101 -105 0
-102 -103 0
-102 -104 0
-102 -105 0
-103 -104 0
-103 -105 0
-104 -105 0
101 102 103 104 105 0
-106 -107 0
-106 -108 0
-106 -109 0
-106 -110 0
-107 -108 0
-107 -109 0
-107 -110 0
-108 -109 0
-108 -110 0
-109 -110 0
106 107 108 109 110 0
-111 -112 0
-111 -113 0
-111 -114 0
-111 -115 0
-112 -113 0
-112 -114 0
-112 -115 0
-113 -114 0
-113 -115 0
-114 -115 0
111 112 113 114 115 0
-116 -117 0
-116 -118 0
-116 -119 0
-116 -120 0
-117 -118 0
-117 -119 0
-117 -120 0
-118 -119 0
-118 -120 0
-119 -120 0
116 117 118 119 120 0
-121 -122 0
-121 -123 0
-121 -124 0
-121 -125 0
-122 -123 0
-122 -124 0
-122 -125 0
-123 -124 0
-123 -125 0
-124 -125 0
121 122 123 124 125 0
-126 -127 0
-126 -128 0
-126 -129 0
-126 -130 0
-127 -128 0
-127 -129 0
-127 -130 0
-128 -129 0
-128 -130 0
-129 -130 0
126 127 128 129 130 0
-131 -132 0
-131 -133 0
-131 -134 0
-131 -135 0
-132 -133 0
-132 -134 0
-132 -135 0
-133 -134 0
-133 -135 0
-134 -135 0
131 132 133 134 135 0
-136 -137 0
-136 -138 0
-136 -139 0
-136 -140 0
-137 -138 0
-137 -139 0
-137 -140 0
-138 -139 0
-138 -140 0
-139 -140 0
136 137 138 139 140 0
-141 -142 0
-141 -143 0
-141 -144 0
-141 -145 0
-142 -143 0
-142 -144 0
-142 -145 0
-143 -144 0
-143 -145 0
-144 -145 0
141 142 143 144 145 0
-146 -147 0
-146 -148 0
-146 -149 0
-146 -150 0
-147 -148 0
-147 -149 0
-147 -150 0
-148 -149 0
-148 -150 0
-149 -150 0
146 147 148 149 150 0
-151 -152 0
-151 -153 0
-151 -154 0
-151 -155 0
-152 -153 0
-152 -154 0
-152 -155 0
-153 -154 0
-153 -155 0
-154 -155 0
151 152 153 154 155 0
-156 -157 0
-156 -158 0
-156 -159 0
-156 -160 0
-157 -158 0
-157 -159 0
-157 -160 0
-158 -159 0
-158 -160 0
-159 -160 0
156 157 158 159 160 0
-161 -162 0
-161 -163 0
-161 -164 0
-161 -165 0
-162 -163 0
-162 -164 0
-162 -165 0
-163 -164 0
-163 -165 0
-164 -165 0
161 162 163 164 165 0
-166 -167 0
-166 -168 0
-166 -169 0
-166 -170 0
-167 -168 0
-167 -169 0
-167 -170 0
-168 -169 0
-168 -170 0
-169 -170 0
166 167 168 169 170 0
-171 -172 0
-171 -173 0
-171 -174 0
-171 -175 0
-172 -173 0
-172 -174 0
-172 -175 0
-173 -174 0
-173 -175 0
-174 -175 0
171 172 173 174 175 0
-176 -177 0
-176 -178 0
-176 -179 0
-176 -180 0
-177 -178 0
-177 -179 0
-177 -180 0
-178 -179 0
-178 -180 0
-179 -180 0
176 177 178 179 180 0
-181 -182 0
-181 -183 0
-181 -184 0
-181 -185 0
-182 -183 0
-182 -184 0
-182 -185 0
-183 -184 0
-183 -185 0
-184 -185 0
181 182 183 184 185 0
-186 -187 0
-186 -188 0
-186 -189 0
-186 -190 0
-187 -188 0
-187 -189 0
-187 -190 0
-188 -189 0
-188 -190 0
-189 -190 0
186 187 188 189 190 0
-191 -192 0
-191 -193 0
-191 -194 0
-191 -195 0
-192 -193 0
-192 -194 0
-192 -195 0
-193 -194 0
-193 -195 0
-194 -195 0
191 192 193 194 195 0
-196 -197 0
-196 -198 0
-196 -199 0
-196 -200 0
-197 -198 0
-197 -199 0
-197 -200 0
-198 -199 0
-198 -200 0
-199 -200 0
196 197 198 199 200 0
-201 -202 0
-201 -203 0
-201 -204 0
-201 -205 0
-202 -203 0
-202 -204 0
-202 -205 0
-203 -204 0
-203 -205 0
-204 -205 0
201 202 203 204 205 0
-206 -207 0
-206 -208 0
-206 -209 0
-206 -210 0
-207 -208 0
-207 -209 0
-207 -210 0
-208 -209 0
-208 -210 0
-209 -210 0
206 207 208 209 210 0
-211 -212 0
-211 -213 0
-211 -214 0
-211 -215 0
-212 -213 0
-212 -214 0
-212 -215 0
-213 -214 0
-213 -215 0
-214 -215 0
211 212 213 214 215 0
-216 -217 0
-216 -218 0
-216 -219 0
-216 -220 0
-217 -218 0
-217 -219 0
-217 -220 0
-218 -219 0
-218 -220 0
-219 -220 0
216 217 218 219 220 0
-221 -222 0
-221 -223 0
-221 -224 0
-221 -225 0
-222 -223 0
-222 -224 0
-222 -225 0
-223 -224 0
-223 -225 0
-224 -225 0
221 222 223 224 225 0
-226 -227 0
-226 -228 0
-226 -229 0
-226 -230 0
-227 -228 0
-227 -229 0
-227 -230 0
-228 -229 0
-228 -230 0
-229 -230 0
226 227 228 229 230 0
-231 -232 0
-231 -233 0
-231 -234 0
-231 -235 0
-232 -233 0
-232 -234 0
-232 -235 0
-233 -234 0
-233 -235 0
-234 -235 0
231 232 233 234 235 0
-236 -237 0
-236 -238 0
-236 -239 0
-236 -240 0
-237 -238 0
-237 -239 0
-237 -240 0
-238 -239 0
-238 -240 0
-239 -240 0
236 237 238 239 240 0
-241 -242 0
-241 -243 0
-241 -244 0
-241 -245 0
-242 -243 0
-242 -244 0
-242 -245 0
-243 -244 0
-243 -245 0
-244 -245 0
241 242 243 244 245 0
-246 -247 0
-246 -248 0
-246 -249 0
-246 -250 0
-247 -248 0
-247 -249 0
-247 -250 0
-248 -249 0
-248 -250 0
-249 -250 0
246 247 248 249 250 0
-251 -252 0
-251 -253 0
-251 -254 0
-251 -255 0
-252 -253 0
-252 -254 0
-252 -255 0
-253 -254 0
-253 -255 0
-254 -255 0
251 252 253 254 255 0
-256 -257 0
-256 -258 0
-256 -259 0
-256 -260 0
-257 -258 0
-257 -259 0
-257 -260 0
-258 -259 0
-258 -260 0
-259 -260 0
256 257 258 259 260 0
-261 -262 0
-261 -263 0
-261 -264 0
-261 -265 0
-262 -263 0
-262 -264 0
-262 -265 0
-263 -264 0
-263 -265 0
-264 -265 0
261 262 263 264 265 0
-266 -267 0
-266 -268 0
-266 -269 0
-266 -270 0
-267 -268 0
-267 -269 0
-267 -270 0
-268 -269 0
-268 -270 0
-269 -270 0
266 267 268 269 270 0
-271 -272 0
-271 -273 0
-271 -274 0
-271 -275 0
-272 -273 0
-272 -274 0
-272 -275 0
-273 -274 0
-273 -275 0
-274 -275 0
271 272 273 274 275 0
-276 -277 0
-276 -278 0
-276 -279 0
-276 -280 0
-277 -278 0
-277 -279 0
-277 -280 0
-278 -279 0
-278 -280 0
-279 -280 0
276 277 278 279 280 0
-281 -282 0
-281 -283 0
-281 -284 0
-281 -285 0
-282 -283 0
-282 -284 0
-282 -285 0
-283 -284 0
-283 -285 0
-284 -285 0
281 282 283 284 285 0
-286 -287 0
-286 -288 0
-286 -289 0
-286 -290 0
-287 -288 0
-287 -289 0
-287 -290 0
-288 -289 0
-288 -290 0
-289 -290 0
286 287 288 289 290 0
-291 -292 0
-291 -293 0
-291 -294 0
-291 -295 0
-292 -293 0
-292 -294 0
-292 -295 0
-293 -294 0
-293 -295 0
-294 -295 0
291 292 293 294 295 0
-296 -297 0
-296 -298 0
-296 -299 0
-296 -300 0
-297 -298 0
-297 -299 0
-297 -300 0
-298 -299 0
-298 -300 0
-299 -300 0
296 297 298 299 300 0
-301 -302 0
-301 -303 0
-301 -304 0
-301 -305 0
-302 -303 0
-302 -304 0
-302 -305 0
-303 -304 0
-303 -305 0
-304 -305 0
301 302 303 304 305 0
-306 -307 0
-306 -308 0
-306 -309 0
-306 -310 0
-307 -308 0
-307 -309 0
-307 -310 0
-308 -309 0
-308 -310 0
-309 -310 0
306 307 308 309 310 0
-311 -312 0
-311 -313 0
-311 -314 0
-311 -315 0
-312 -313 0
-312 -314 0
-312 -315 0
-313 -314 0
-313 -315 0
-314 -315 0
311 312 313 314 315 0
-316 -317 0
-316 -318 0
-316 -319 0
-316 -320 0
-317 -318 0
-317 -319 0
-317 -320 0
-318 -319 0
-318 -320 0
-319 -320 0
316 317 318 319 320 0
-321 -322 0
-321 -323 0
-321 -324 0
-321 -325 0
-322 -323 0
-322 -324 0
-322 -325 0
-323 -324 0
-323 -325 0
-324 -325 0
321 322 323 324 325 0
-326 -327 0
-326 -328 0
-326 -329 0
-326 -330 0
-327 -328 0
-327 -329 0
-327 -330 0
-328 -329 0
-328 -330 0
-329 -330 0
326 327 328 329 330 0
-331 -332 0
-331 -333 0
-331 -334 0
-331 -335 0
-332 -333 0
-332 -334 0
-332 -335 0
-333 -334 0
-333 -335 0
-334 -335 0
331 332 333 334 335 0
-336 -337 0
-336 -338 0
-336 -339 0
-336 -340 0
-337 -338 0
-337 -339 0
-337 -340 0
-338 -339 0
-338 -340 0
-339 -340 0
336 337 338 339 340 0
-341 -342 0
-341 -343 0
-341 -344 0
-341 -345 0
-342 -343 0
-342 -344 0
-342 -345 0
-343 -344 0
-343 -345 0
-344 -345 0
341 342 343 344 345 0
-346 -347 0
-346 -348 0
-346 -349 0
-346 -350 0
-347 -348 0
-347 -349 0
-347 -350 0
-348 -349 0
-348 -350 0
-349 -350 0
346 347 348 349 350 0
-351 -352 0
-351 -353 0
-351 -354 0
-351 -355 0
-352 -353 0
-352 -354 0
-352 -355 0
-353 -354 0
-353 -355 0
-354 -355 0
351 352 353 354 355 0
-356 -357 0
-356 -358 0
-356 -359 0
-356 -360 0
-357 -358 0
-357 -359 0
-357 -360 0
-358 -359 0
-358 -360 0
-359 -360 0
356 357 358 359 360 0
-361 -362 0
-361 -363 0
-361 -364 0
-361 -365 0
-362 -363 0
-362 -364 0
-362 -365 0
-363 -364 0
-363 -365 0
-364 -365 0
361 362 363 364 365 0
-366 -367 0
-366 -368 0
-366 -369 0
-366 -370 0
-367 -368 0
-367 -369 0
-367 -370 0
-368 -369 0
-368 -370 0
-369 -370 0
366 367 368 369 370 0
-371 -372 0
-371 -373 0
-371 -374 0
-371 -375 0
-372 -373 0
-372 -374 0
-372 -375 0
-373 -374 0
-373 -375 0
-374 -375 0
371 372 373 374 375 0
-376 -377 0
-376 -378 0
-376 -379 0
-376 -380 0
-377 -378 0
-377 -379 0
-377 -380 0
-378 -379 0
-378 -380 0
-379 -380 0
376 377 378 379 380 0
-381 -382 0
-381 -383 0
-381 -384 0
-381 -385 0
-382 -383 0
-382 -384 0
-382 -385 0
-383 -384 0
-383 -385 0
-384 -385 0
381 382 383 384 385 0
-386 -387 0
-386 -388 0
-386 -389 0
-386 -390 0
-387 -388 0
-387 -389 0
-387 -390 0
-388 -389 0
-388 -390 0
-389 -390 0
386 387 388 389 390 0
-391 -392 0
-391 -393 0
-391 -394 0
-391 -395 0
-392 -393 0
-392 -394 0
-392 -395 0
-393 -394 0
-393 -395 0
-394 -395 0
391 392 393 394 395 0
-396 -397 0
-396 -398 0
-396 -399 0
-396 -400 0
-397 -398 0
-397 -399 0
-397 -400 0
-398 -399 0
-398 -400 0
-399 -400 0
396 397 398 399 400 0
-401 -402 0
-401 -403 0
-401 -404 0
-401 -405 0
-402 -403 0
-402 -404 0
-402 -405 0
-403 -404 0
-403 -405 0
-404 -405 0
401 402 403 404 405 0
-406 -407 0
-406 -408 0
-406 -409 0
-406 -410 0
-407 -408 0
-407 -409 0
-407 -410 0
-408 -409 0
-408 -410 0
-409 -410 0
406 407 408 409 410 0
-411 -412 0
-411 -413 0
-411 -414 0
-411 -415 0
-412 -413 0
-412 -414 0
-412 -415 0
-413 -414 0
-413 -415 0
-414 -415 0
411 412 413 414 415 0
-416 -417 0
-416 -418 0
-416 -419 0
-416 -420 0
-417 -418 0
-417 -419 0
-417 -420 0
-418 -419 0
-418 -420 0
-419 -420 0
416 417 418 419 420 0
-421 -422 0
-421 -423 0
-421 -424 0
-421 -425 0
-422 -423 0
-422 -424 0
-422 -425 0
-423 -424 0
-423 -425 0
-424 -425 0
421 422 423 424 425 0
-426 -427 0
-426 -428 0
-426 -429 0
-426 -430 0
-427 -428 0
-427 -429 0
-427 -430 0
-428 -429 0
-428 -430 0
-429 -430 0
426 427 428 429 430 0
-431 -432 0
-431 -433 0
-431 -434 0
-431 -435 0
-432 -433 0
-432 -434 0
-432 -435 0
-433 -434 0
-433 -435 0
-434 -435 0
431 432 433 434 435 0
-436 -437 0
-436 -438 0
-436 -439 0
-436 -440 0
-437 -438 0
-437 -439 0
-437 -440 0
-438 -439 0
-438 -440 0
-439 -440 0
436 437 438 439 440 0
-441 -442 0
-441 -443 0
-441 -444 0
-441 -445 0
-442 -443 0
-442 -444 0
-442 -445 0
-443 -444 0
-443 -445 0
-444 -445 0
441 442 443 444 445 0
-446 -447 0
-446 -448 0
-446 -449 0
-446 -450 0
-447 -448 0
-447 -449 0
-447 -450 0
-448 -449 0
-448 -450 0
-449 -450 0
446 447 448 449 450 0
-451 -452 0
-451 -453 0
-451 -454 0
-451 -455 0
-452 -453 0
-452 -454 0
-452 -455 0
-453 -454 0
-453 -455 0
-454 -455 0
451 452 453 454 455 0
-456 -457 0
-456 -458 0
-456 -459 0
-456 -460 0
-457 -458 0
-457 -459 0
-457 -460 0
-458 -459 0
-458 -460 0
-459 -460 0
456 457 458 459 460 0
-461 -462 0
-461 -463 0
-461 -464 0
-461 -465 0
-462 -463 0
-462 -464 0
-462 -465 0
-463 -464 0
-463 -465 0
-464 -465 0
461 462 463 464 465 0
-466 -467 0
-466 -468 0
-466 -469 0
-466 -470 0
-467 -468 0
-467 -469 0
-467 -470 0
-468 -469 0
-468 -470 0
-469 -470 0
466 467 468 469 470 0
-471 -472 0
-471 -473 0
-471 -474 0
-471 -475 0
-472 -473 0
-472 -474 0
-472 -475 0
-473 -474 0
-473 -475 0
-474 -475 0
471 472 473 474 475 0
-476 -477 0
-476 -478 0
-476 -479 0
-476 -480 0
-477 -478 0
-477 -479 0
-477 -480 0
-478 -479 0
-478 -480 0
-479 -480 0
476 477 478 479 480 0
-481 -482 0
-481 -483 0
-481 -484 0
-481 -485 0
-482 -483 0
-482 -484 0
-482 -485 0
-483 -484 0
-483 -485 0
-484 -485 0
481 482 483 484 485 0
-486 -487 0
-486 -488 0
-486 -489 0
-486 -490 0
-487 -488 0
-487 -489 0
-487 -490 0
-488 -489 0
-488 -490 0
-489 -490 0
486 487 488 489 490 0
-491 -492 0
-491 -493 0
-491 -494 0
-491 -495 0
-492 -493 0
-492 -494 0
-492 -495 0
-493 -494 0
-493 -495 0
-494 -495 0
491 492 493 494 495 0
-496 -497 0
-496 -498 0
-496 -499 0
-496 -500 0
-497 -498 0
-497 -499 0
-497 -500 0
-498 -499 0
-498 -500 0
-499 -500 0
496 497 498 499 500 0
-1 -6 0
-2 -7 0
-3 -8 0
-4 -9 0
-5 -10 0
-46 -56 0
-47 -57 0
-48 -58 0
-49 -59 0
-50 -60 0
-56 -66 0
-57 -67 0
-58 -68 0
-59 -69 0
-60 -70 0
-91 -96 0
-92 -97 0
-93 -98 0
-94 -99 0
-95 -100 0
-96 -111 0
-97 -112 0
-98 -113 0
-99 -114 0
-100 -115 0
-111 -131 0
-112 -132 0
-113 -133 0
-114 -134 0
-115 -135 0
-156 -161 0
-157 -162 0
-158 -163 0
-159 -164 0
-160 -165 0
-161 -181 0
-162 -182 0
-163 -183 0
-164 -184 0
-165 -185 0
-176 -181 0
-177 -182 0
-178 -183 0
-179 -184 0
-180 -185 0
-196 -206 0
-197 -207 0
-198 -208 0
-199 -209 0
-200 -210 0
-231 -246 0
-232 -247 0
-233 -248 0
-234 -249 0
-235 -250 0
-241 -251 0
-242 -252 0
-243 -253 0
-244 -254 0
-245 -255 0
-266 -286 0
-267 -287 0
-268 -288 0
-269 -289 0
-270 -290 0
-291 -306 0
-292 -307 0
-293 -308 0
-294 -309 0
-295 -310 0
-316 -321 0
-317 -322 0
-318 -323 0
-319 -324 0
-320 -325 0
-316 -331 0
-317 -332 0
-318 -333 0
-319 -334 0
-320 -335 0
-321 -341 0
-322 -342 0
-323 -343 0
-324 -344 0
-325 -345 0
-326 -346 0
-327 -347 0
-328 -348 0
-329 -349 0
-330 -350 0
-341 -346 0
-342 -347 0
-343 -348 0
-344 -349 0
-345 -350 0
-346 -351 0
-347 -352 0
-348 -353 0
-349 -354 0
-350 -355 0
-346 -366 0
-347 -367 0
-348 -368 0
-349 -369 0
-350 -370 0
-356 -366 0
-357 -367 0
-358 -368 0
-359 -369 0
-360 -370 0
-361 -376 0
-362 -377 0
-363 -378 0
-364 -379 0
-365 -380 0
-386 -401 0
-387 -402 0
-388 -403 0
-389 -404 0
-390 -405 0
-396 -406 0
-397 -407 0
-398 -408 0
-399 -409 0
-400 -410 0
-396 -416 0
-397 -417 0
-398 -418 0
-399 -419 0
-400 -420 0
-401 -406 0
-402 -407 0
-403 -408 0
-404 -409 0
-405 -410 0
-401 -421 0
-402 -422 0
-403 -423 0
-404 -424 0
-405 -425 0
-416 -431 0
-417 -432 0
-418 -433 0
-419 -434 0
-420 -435 0
-426 -446 0
-427 -447 0
-428 -448 0
-429 -449 0
-430 -450 0
-441 -451 0
-442 -452 0
-443 -453 0
-444 -454 0
-445 -455 0
-451 -466 0
-452 -467 0
-453 -468 0
-454 -469 0
-455 -470 0
-466 -471 0
-467 -472 0
-468 -473 0
-469 -474 0
-470 -475 0
-466 -486 0
-467 -487 0
-468 -488 0
-469 -489 0
-470 -490 0
-476 -486 0
-477 -487 0
-478 -488 0
-479 -489 0
-480 -490 0
-486 -496 0
-487 -497 0
-488 -498 0
-489 -499 0
-490 -500 0
-1 -36 0
-2 -37 0
-3 -38 0
-4 -39 0
-5 -40 0
-1 -181 0
-2 -182 0
-3 -183 0
-4 -184 0
-5 -185 0
-1 -226 0
-2 -227 0
-3 -228 0
-4 -229 0
-5 -230 0
-1 -246 0
-2 -247 0
-3 -248 0
-4 -249 0
-5 -250 0
-1 -276 0
-2 -277 0
-3 -278 0
-4 -279 0
-5 -280 0
-1 -371 0
-2 -372 0
-3 -373 0
-4 -374 0
-5 -375 0
-1 -401 0
-2 -402 0
-3 -403 0
-4 -404 0
-5 -405 0
-6 -256 0
-7 -257 0
-8 -258 0
-9 -259 0
-10 -260 0
-6 -271 0
-7 -272 0
-8 -273 0
-9 -274 0
-10 -275 0
-6 -461 0
-7 -462 0
-8 -463 0
-9 -464 0
-10 -465 0
-11 -71 0
-12 -72 0
-13 -73 0
-14 -74 0
-15 -75 0
-11 -251 0
-12 -252 0
-13 -253 0
-14 -254 0
-15 -255 0
-11 -376 0
-12 -377 0
-13 -378 0
-14 -379 0
-15 -380 0
-11 -391 0
-12 -392 0
-13 -393 0
-14 -394 0
-15 -395 0
-11 -406 0
-12 -407 0
-13 -408 0
-14 -409 0
-15 -410 0
-11 -421 0
-12 -422 0
-13 -423 0
-14 -424 0
-15 -425 0
-11 -446 0
-12 -447 0
-13 -448 0
-14 -449 0
-15 -450 0
-16 -66 0
-17 -67 0
-18 -68 0
-19 -69 0
-20 -70 0
-16 -146 0
-17 -147 0
-18 -148 0
-19 -149 0
-20 -150 0
-16 -211 0
-17 -212 0
-18 -213 0
-19 -214 0
-20 -215 0
-16 -336 0
-17 -337 0
-18 -338 0
-19 -339 0
-20 -340 0
-16 -396 0
-17 -397 0
-18 -398 0
-19 -399 0
-20 -400 0
-21 -56 0
-22 -57 0
-23 -58 0
-24 -59 0
-25 -60 0
-21 -61 0
-22 -62 0
-23 -63 0
-24 -64 0
-25 -65 0
-21 -66 0
-22 -67 0
-23 -68 0
-24 -69 0
-25 -70 0
-21 -151 0
-22 -152 0
-23 -153 0
-24 -154 0
-25 -155 0
-21 -241 0
-22 -242 0
-23 -243 0
-24 -244 0
-25 -245 0
-21 -306 0
-22 -307 0
-23 -308 0
-24 -309 0
-25 -310 0
-21 -331 0
-22 -332 0
-23 -333 0
-24 -334 0
-25 -335 0
-21 -401 0
-22 -402 0
-23 -403 0
-24 -404 0
-25 -405 0
-21 -416 0
-22 -417 0
-23 -418 0
-24 -419 0
-25 -420 0
-21 -426 0
-22 -427 0
-23 -428 0
-24 -429 0
-25 -430 0
-26 -56 0
-27 -57 0
-28 -58 0
-29 -59 0
-30 -60 0
-26 -166 0
-27 -167 0
-28 -168 0
-29 -169 0
-30 -170 0
-26 -186 0
-27 -187 0
-28 -188 0
-29 -189 0
-30 -190 0
-26 -266 0
-27 -267 0
-28 -268 0
-29 -269 0
-30 -270 0
-26 -291 0
-27 -292 0
-28 -293 0
-29 -294 0
-30 -295 0
-26 -416 0
-27 -417 0
-28 -418 0
-29 -419 0
-30 -420 0
-26 -456 0
-27 -457 0
-28 -458 0
-29 -459 0
-30 -460 0
-26 -481 0
-27 -482 0
-28 -483 0
-29 -484 0
-30 -485 0
-31 -201 0
-32 -202 0
-33 -203 0
-34 -204 0
-35 -205 0
-31 -246 0
-32 -247 0
-33 -248 0
-34 -249 0
-35 -250 0
-31 -341 0
-32 -342 0
-33 -343 0
-34 -344 0
-35 -345 0
-31 -421 0
-32 -422 0
-33 -423 0
-34 -424 0
-35 -425 0
-36 -71 0
-37 -72 0
-38 -73 0
-39 -74 0
-40 -75 0
-36 -161 0
-37 -162 0
-38 -163 0
-39 -164 0
-40 -165 0
-36 -306 0
-37 -307 0
-38 -308 0
-39 -309 0
-40 -310 0
-36 -376 0
-37 -377 0
-38 -378 0
-39 -379 0
-40 -380 0
-36 -406 0
-37 -407 0
-38 -408 0
-39 -409 0
-40 -410 0
-36 -451 0
-37 -452 0
-38 -453 0
-39 -454 0
-40 -455 0
-36 -491 0
-37 -492 0
-38 -493 0
-39 -494 0
-40 -495 0
-41 -86 0
-42 -87 0
-43 -88 0
-44 -89 0
-45 -90 0
-41 -126 0
-42 -127 0
-43 -128 0
-44 -129 0
-45 -130 0
-41 -136 0
-42 -137 0
-43 -138 0
-44 -139 0
-45 -140 0
-41 -306 0
-42 -307 0
-43 -308 0
-44 -309 0
-45 -310 0
-41 -311 0
-42 -312 0
-43 -313 0
-44 -314 0
-45 -315 0
-41 -386 0
-42 -387 0
-43 -388 0
-44 -389 0
-45 -390 0
-46 -76 0
-47 -77 0
-48 -78 0
-49 -79 0
-50 -80 0
-46 -111 0
-47 -112 0
-48 -113 0
-49 -114 0
-50 -115 0
-46 -201 0
-47 -202 0
-48 -203 0
-49 -204 0
-50 -205 0
-46 -266 0
-47 -267 0
-48 -268 0
-49 -269 0
-50 -270 0
-46 -276 0
-47 -277 0
-48 -278 0
-49 -279 0
-50 -280 0
-51 -91 0
-52 -92 0
-53 -93 0
-54 -94 0
-55 -95 0
-51 -101 0
-52 -102 0
-53 -103 0
-54 -104 0
-55 -105 0
-51 -161 0
-52 -162 0
-53 -163 0
-54 -164 0
-55 -165 0
-51 -181 0
-52 -182 0
-53 -183 0
-54 -184 0
-55 -185 0
-51 -331 0
-52 -332 0
-53 -333 0
-54 -334 0
-55 -335 0
-51 -361 0
-52 -362 0
-53 -363 0
-54 -364 0
-55 -365 0
-51 -416 0
-52 -417 0
-53 -418 0
-54 -419 0
-55 -420 0
-56 -161 0
-57 -162 0
-58 -163 0
-59 -164 0
-60 -165 0
-56 -176 0
-57 -177 0
-58 -178 0
-59 -179 0
-60 -180 0
-56 -231 0
-57 -232 0
-58 -233 0
-59 -234 0
-60 -235 0
-56 -236 0
-57 -237 0
-58 -238 0
-59 -239 0
-60 -240 0
-56 -311 0
-57 -312 0
-58 -313 0
-59 -314 0
-60 -315 0
-56 -336 0
-57 -337 0
-58 -338 0
-59 -339 0
-60 -340 0
-56 -346 0
-57 -347 0
-58 -348 0
-59 -349 0
-60 -350 0
-56 -356 0
-57 -357 0
-58 -358 0
-59 -359 0
-60 -360 0
-61 -166 0
-62 -167 0
-63 -168 0
-64 -169 0
-65 -170 0
-61 -201 0
-62 -202 0
-63 -203 0
-64 -204 0
-65 -205 0
-61 -206 0
-62 -207 0
-63 -208 0
-64 -209 0
-65 -210 0
-61 -336 0
-62 -337 0
-63 -338 0
-64 -339 0
-65 -340 0
-61 -386 0
-62 -387 0
-63 -388 0
-64 -389 0
-65 -390 0
-61 -396 0
-62 -397 0
-63 -398 0
-64 -399 0
-65 -400 0
-61 -461 0
-62 -462 0
-63 -463 0
-64 -464 0
-65 -465 0
-61 -466 0
-62 -467 0
-63 -468 0
-64 -469 0
-65 -470 0
-66 -121 0
-67 -122 0
-68 -123 0
-69 -124 0
-70 -125 0
-66 -211 0
-67 -212 0
-68 -213 0
-69 -214 0
-70 -215 0
-66 -216 0
-67 -217 0
-68 -218 0
-69 -219 0
-70 -220 0
-66 -241 0
-67 -242 0
-68 -243 0
-69 -244 0
-70 -245 0
-66 -296 0
-67 -297 0
-68 -298 0
-69 -299 0
-70 -300 0
-66 -321 0
-67 -322 0
-68 -323 0
-69 -324 0
-70 -325 0
-66 -366 0
-67 -367 0
-68 -368 0
-69 -369 0
-70 -370 0
-66 -406 0
-67 -407 0
-68 -408 0
-69 -409 0
-70 -410 0
-66 -426 0
-67 -427 0
-68 -428 0
-69 -429 0
-70 -430 0
-71 -251 0
-72 -252 0
-73 -253 0
-74 -254 0
-75 -255 0
-71 -256 0
-72 -257 0
-73 -258 0
-74 -259 0
-75 -260 0
-71 -266 0
-72 -267 0
-73 -268 0
-74 -269 0
-75 -270 0
-71 -326 0
-72 -327 0
-73 -328 0
-74 -329 0
-75 -330 0
-71 -341 0
-72 -342 0
-73 -343 0
-74 -344 0
-75 -345 0
-71 -426 0
-72 -427 0
-73 -428 0
-74 -429 0
-75 -430 0
-71 -481 0
-72 -482 0
-73 -483 0
-74 -484 0
-75 -485 0
-76 -131 0
-77 -132 0
-78 -133 0
-79 -134 0
-80 -135 0
-76 -166 0
-77 -167 0
-78 -168 0
-79 -169 0
-80 -170 0
-76 -266 0
-77 -267 0
-78 -268 0
-79 -269 0
-80 -270 0
-76 -316 0
-77 -317 0
-78 -318 0
-79 -319 0
-80 -320 0
-76 -361 0
-77 -362 0
-78 -363 0
-79 -364 0
-80 -365 0
-76 -496 0
-77 -497 0
-78 -498 0
-79 -499 0
-80 -500 0
-81 -151 0
-82 -152 0
-83 -153 0
-84 -154 0
-85 -155 0
-81 -191 0
-82 -192 0
-83 -193 0
-84 -194 0
-85 -195 0
-81 -231 0
-82 -232 0
-83 -233 0
-84 -234 0
-85 -235 0
-81 -256 0
-82 -257 0
-83 -258 0
-84 -259 0
-85 -260 0
-81 -261 0
-82 -262 0
-83 -263 0
-84 -264 0
-85 -265 0
-81 -371 0
-82 -372 0
-83 -373 0
-84 -374 0
-85 -375 0
-81 -411 0
-82 -412 0
-83 -413 0
-84 -414 0
-85 -415 0
-81 -416 0
-82 -417 0
-83 -418 0
-84 -419 0
-85 -420 0
-86 -141 0
-87 -142 0
-88 -143 0
-89 -144 0
-90 -145 0
-86 -191 0
-87 -192 0
-88 -193 0
-89 -194 0
-90 -195 0
-86 -201 0
-87 -202 0
-88 -203 0
-89 -204 0
-90 -205 0
-86 -251 0
-87 -252 0
-88 -253 0
-89 -254 0
-90 -255 0
-86 -286 0
-87 -287 0
-88 -288 0
-89 -289 0
-90 -290 0
-86 -301 0
-87 -302 0
-88 -303 0
-89 -304 0
-90 -305 0
-86 -331 0
-87 -332 0
-88 -333 0
-89 -334 0
-90 -335 0
-86 -356 0
-87 -357 0
-88 -358 0
-89 -359 0
-90 -360 0
-91 -136 0
-92 -137 0
-93 -138 0
-94 -139 0
-95 -140 0
-91 -206 0
-92 -207 0
-93 -208 0
-94 -209 0
-95 -210 0
-91 -216 0
-92 -217 0
-93 -218 0
-94 -219 0
-95 -220 0
-91 -246 0
-92 -247 0
-93 -248 0
-94 -249 0
-95 -250 0
-91 -256 0
-92 -257 0
-93 -258 0
-94 -259 0
-95 -260 0
-91 -301 0
-92 -302 0
-93 -303 0
-94 -304 0
-95 -305 0
-91 -306 0
-92 -307 0
-93 -308 0
-94 -309 0
-95 -310 0
-91 -351 0
-92 -352 0
-93 -353 0
-94 -354 0
-95 -355 0
-91 -361 0
-92 -362 0
-93 -363 0
-94 -364 0
-95 -365 0
-96 -126 0
-97 -127 0
-98 -128 0
-99 -129 0
-100 -130 0
-96 -146 0
-97 -147 0
-98 -148 0
-99 -149 0
-100 -150 0
-96 -216 0
-97 -217 0
-98 -218 0
-99 -219 0
-100 -220 0
-96 -231 0
-97 -232 0
-98 -233 0
-99 -234 0
-100 -235 0
-96 -396 0
-97 -397 0
-98 -398 0
-99 -399 0
-100 -400 0
-96 -421 0
-97 -422 0
-98 -423 0
-99 -424 0
-100 -425 0
-96 -441 0
-97 -442 0
-98 -443 0
-99 -444 0
-100 -445 0
-101 -126 0
-102 -127 0
-103 -128 0
-104 -129 0
-105 -130 0
-101 -131 0
-102 -132 0
-103 -133 0
-104 -134 0
-105 -135 0
-101 -166 0
-102 -167 0
-103 -168 0
-104 -169 0
-105 -170 0
-101 -201 0
-102 -202 0
-103 -203 0
-104 -204 0
-105 -205 0
-101 -231 0
-102 -232 0
-103 -233 0
-104 -234 0
-105 -235 0
-101 -236 0
-102 -237 0
-103 -238 0
-104 -239 0
-105 -240 0
-101 -256 0
-102 -257 0
-103 -258 0
-104 -259 0
-105 -260 0
-101 -291 0
-102 -292 0
-103 -293 0
-104 -294 0
-105 -295 0
-101 -326 0
-102 -327 0
-103 -328 0
-104 -329 0
-105 -330 0
-101 -336 0
-102 -337 0
-103 -338 0
-104 -339 0
-105 -340 0
-101 -366 0
-102 -367 0
-103 -368 0
-104 -369 0
-105 -370 0
-101 -461 0
-102 -462 0
-103 -463 0
-104 -464 0
-105 -465 0
-106 -281 0
-107 -282 0
-108 -283 0
-109 -284 0
-110 -285 0
-106 -431 0
-107 -432 0
-108 -433 0
-109 -434 0
-110 -435 0
-106 -436 0
-107 -437 0
-108 -438 0
-109 -439 0
-110 -440 0
-106 -441 0
-107 -442 0
-108 -443 0
-109 -444 0
-110 -445 0
-106 -471 0
-107 -472 0
-108 -473 0
-109 -474 0
-110 -475 0
-111 -141 0
-112 -142 0
-113 -143 0
-114 -144 0
-115 -145 0
-111 -281 0
-112 -282 0
-113 -283 0
-114 -284 0
-115 -285 0
-111 -321 0
-112 -322 0
-113 -323 0
-114 -324 0
-115 -325 0
-111 -371 0
-112 -372 0
-113 -373 0
-114 -374 0
-115 -375 0
-111 -401 0
-112 -402 0
-113 -403 0
-114 -404 0
-115 -405 0
-111 -451 0
-112 -452 0
-113 -453 0
-114 -454 0
-115 -455 0
-111 -496 0
-112 -497 0
-113 -498 0
-114 -499 0
-115 -500 0
-116 -171 0
-117 -172 0
-118 -173 0
-119 -174 0
-120 -175 0
-116 -191 0
-117 -192 0
-118 -193 0
-119 -194 0
-120 -195 0
-116 -341 0
-117 -342 0
-118 -343 0
-119 -344 0
-120 -345 0
-116 -376 0
-117 -377 0
-118 -378 0
-119 -379 0
-120 -380 0
-116 -396 0
-117 -397 0
-118 -398 0
-119 -399 0
-120 -400 0
-121 -246 0
-122 -247 0
-123 -248 0
-124 -249 0
-125 -250 0
-121 -256 0
-122 -257 0
-123 -258 0
-124 -259 0
-125 -260 0
-121 -296 0
-122 -297 0
-123 -298 0
-124 -299 0
-125 -300 0
-121 -311 0
-122 -312 0
-123 -313 0
-124 -314 0
-125 -315 0
-121 -426 0
-122 -427 0
-123 -428 0
-124 -429 0
-125 -430 0
-126 -201 0
-127 -202 0
-128 -203 0
-129 -204 0
-130 -205 0
-126 -341 0
-127 -342 0
-128 -343 0
-129 -344 0
-130 -345 0
-131 -181 0
-132 -182 0
-133 -183 0
-134 -184 0
-135 -185 0
-131 -196 0
-132 -197 0
-133 -198 0
-134 -199 0
-135 -200 0
-131 -281 0
-132 -282 0
-133 -283 0
-134 -284 0
-135 -285 0
-131 -301 0
-132 -302 0
-133 -303 0
-134 -304 0
-135 -305 0
-131 -426 0
-132 -427 0
-133 -428 0
-134 -429 0
-135 -430 0
-131 -436 0
-132 -437 0
-133 -438 0
-134 -439 0
-135 -440 0
-131 -466 0
-132 -467 0
-133 -468 0
-134 -469 0
-135 -470 0
-131 -471 0
-132 -472 0
-133 -473 0
-134 -474 0
-135 -475 0
-136 -191 0
-137 -192 0
-138 -193 0
-139 -194 0
-140 -195 0
-136 -256 0
-137 -257 0
-138 -258 0
-139 -259 0
-140 -260 0
-136 -481 0
-137 -482 0
-138 -483 0
-139 -484 0
-140 -485 0
-141 -291 0
-142 -292 0
-143 -293 0
-144 -294 0
-145 -295 0
-141 -401 0
-142 -402 0
-143 -403 0
-144 -404 0
-145 -405 0
-141 -416 0
-142 -417 0
-143 -418 0
-144 -419 0
-145 -420 0
-141 -431 0
-142 -432 0
-143 -433 0
-144 -434 0
-145 -435 0
-141 -441 0
-142 -442 0
-143 -443 0
-144 -444 0
-145 -445 0
-141 -461 0
-142 -462 0
-143 -463 0
-144 -464 0
-145 -465 0
-146 -246 0
-147 -247 0
-148 -248 0
-149 -249 0
-150 -250 0
-146 -286 0
-147 -287 0
-148 -288 0
-149 -289 0
-150 -290 0
-146 -316 0
-147 -317 0
-148 -318 0
-149 -319 0
-150 -320 0
-146 -376 0
-147 -377 0
-148 -378 0
-149 -379 0
-150 -380 0
-146 -391 0
-147 -392 0
-148 -393 0
-149 -394 0
-150 -395 0
-146 -406 0
-147 -407 0
-148 -408 0
-149 -409 0
-150 -410 0
-146 -411 0
-147 -412 0
-148 -413 0
-149 -414 0
-150 -415 0
-146 -451 0
-147 -452 0
-148 -453 0
-149 -454 0
-150 -455 0
-151 -216 0
-152 -217 0
-153 -218 0
-154 -219 0
-155 -220 0
-151 -276 0
-152 -277 0
-153 -278 0
-154 -279 0
-155 -280 0
-151 -281 0
-152 -282 0
-153 -283 0
-154 -284 0
-155 -285 0
-151 -301 0
-152 -302 0
-153 -303 0
-154 -304 0
-155 -305 0
-151 -346 0
-152 -347 0
-153 -348 0
-154 -349 0
-155 -350 0
-151 -416 0
-152 -417 0
-153 -418 0
-154 -419 0
-155 -420 0
-151 -471 0
-152 -472 0
-153 -473 0
-154 -474 0
-155 -475 0
-151 -481 0
-152 -482 0
-153 -483 0
-154 -484 0
-155 -485 0
-156 -306 0
-157 -307 0
-158 -308 0
-159 -309 0
-160 -310 0
-156 -321 0
-157 -322 0
-158 -323 0
-159 -324 0
-160 -325 0
-156 -471 0
-157 -472 0
-158 -473 0
-159 -474 0
-160 -475 0
-161 -236 0
-162 -237 0
-163 -238 0
-164 -239 0
-165 -240 0
-161 -251 0
-162 -252 0
-163 -253 0
-164 -254 0
-165 -255 0
-161 -346 0
-162 -347 0
-163 -348 0
-164 -349 0
-165 -350 0
-166 -216 0
-167 -217 0
-168 -218 0
-169 -219 0
-170 -220 0
-166 -241 0
-167 -242 0
-168 -243 0
-169 -244 0
-170 -245 0
-166 -291 0
-167 -292 0
-168 -293 0
-169 -294 0
-170 -295 0
-166 -316 0
-167 -317 0
-168 -318 0
-169 -319 0
-170 -320 0
-166 -361 0
-167 -362 0
-168 -363 0
-169 -364 0
-170 -365 0
-171 -341 0
-172 -342 0
-173 -343 0
-174 -344 0
-175 -345 0
-171 -456 0
-172 -457 0
-173 -458 0
-174 -459 0
-175 -460 0
-176 -326 0
-177 -327 0
-178 -328 0
-179 -329 0
-180 -330 0
-176 -401 0
-177 -402 0
-178 -403 0
-179 -404 0
-180 -405 0
-176 -471 0
-177 -472 0
-178 -473 0
-179 -474 0
-180 -475 0
-181 -271 0
-182 -272 0
-183 -273 0
-184 -274 0
-185 -275 0
-181 -396 0
-182 -397 0
-183 -398 0
-184 -399 0
-185 -400 0
-181 -416 0
-182 -417 0
-183 -418 0
-184 -419 0
-185 -420 0
-181 -466 0
-182 -467 0
-183 -468 0
-184 -469 0
-185 -470 0
-186 -216 0
-187 -217 0
-188 -218 0
-189 -219 0
-190 -220 0
-186 -266 0
-187 -267 0
-188 -268 0
-189 -269 0
-190 -270 0
-186 -271 0
-187 -272 0
-188 -273 0
-189 -274 0
-190 -275 0
-186 -331 0
-187 -332 0
-188 -333 0
-189 -334 0
-190 -335 0
-186 -336 0
-187 -337 0
-188 -338 0
-189 -339 0
-190 -340 0
-186 -376 0
-187 -377 0
-188 -378 0
-189 -379 0
-190 -380 0
-186 -426 0
-187 -427 0
-188 -428 0
-189 -429 0
-190 -430 0
-186 -436 0
-187 -437 0
-188 -438 0
-189 -439 0
-190 -440 0
-191 -231 0
-192 -232 0
-193 -233 0
-194 -234 0
-195 -235 0
-191 -331 0
-192 -332 0
-193 -333 0
-194 -334 0
-195 -335 0
-191 -366 0
-192 -367 0
-193 -368 0
-194 -369 0
-195 -370 0
-191 -436 0
-192 -437 0
-193 -438 0
-194 -439 0
-195 -440 0
-191 -461 0
-192 -462 0
-193 -463 0
-194 -464 0
-195 -465 0
-191 -466 0
-192 -467 0
-193 -468 0
-194 -469 0
-195 -470 0
-191 -496 0
-192 -497 0
-193 -498 0
-194 -499 0
-195 -500 0
-196 -221 0
-197 -222 0
-198 -223 0
-199 -224 0
-200 -225 0
-196 -271 0
-197 -272 0
-198 -273 0
-199 -274 0
-200 -275 0
-196 -331 0
-197 -332 0
-198 -333 0
-199 -334 0
-200 -335 0
-201 -326 0
-202 -327 0
-203 -328 0
-204 -329 0
-205 -330 0
-201 -366 0
-202 -367 0
-203 -368 0
-204 -369 0
-205 -370 0
-201 -391 0
-202 -392 0
-203 -393 0
-204 -394 0
-205 -395 0
-201 -401 0
-202 -402 0
-203 -403 0
-204 -404 0
-205 -405 0
-201 -411 0
-202 -412 0
-203 -413 0
-204 -414 0
-205 -415 0
-201 -466 0
-202 -467 0
-203 -468 0
-204 -469 0
-205 -470 0
-206 -306 0
-207 -307 0
-208 -308 0
-209 -309 0
-210 -310 0
-206 -381 0
-207 -382 0
-208 -383 0
-209 -384 0
-210 -385 0
-206 -396 0
-207 -397 0
-208 -398 0
-209 -399 0
-210 -400 0
-206 -426 0
-207 -427 0
-208 -428 0
-209 -429 0
-210 -430 0
-206 -441 0
-207 -442 0
-208 -443 0
-209 -444 0
-210 -445 0
-211 -276 0
-212 -277 0
-213 -278 0
-214 -279 0
-215 -280 0
-211 -411 0
-212 -412 0
-213 -413 0
-214 -414 0
-215 -415 0
-211 -461 0
-212 -462 0
-213 -463 0
-214 -464 0
-215 -465 0
-216 -281 0
-217 -282 0
-218 -283 0
-219 -284 0
-220 -285 0
-216 -296 0
-217 -297 0
-218 -298 0
-219 -299 0
-220 -300 0
-221 -416 0
-222 -417 0
-223 -418 0
-224 -419 0
-225 -420 0
-226 -251 0
-227 -252 0
-228 -253 0
-229 -254 0
-230 -255 0
-226 -276 0
-227 -277 0
-228 -278 0
-229 -279 0
-230 -280 0
-226 -296 0
-227 -297 0
-228 -298 0
-229 -299 0
-230 -300 0
-226 -306 0
-227 -307 0
-228 -308 0
-229 -309 0
-230 -310 0
-226 -416 0
-227 -417 0
-228 -418 0
-229 -419 0
-230 -420 0
-231 -321 0
-232 -322 0
-233 -323 0
-234 -324 0
-235 -325 0
-231 -346 0
-232 -347 0
-233 -348 0
-234 -349 0
-235 -350 0
-236 -291 0
-237 -292 0
-238 -293 0
-239 -294 0
-240 -295 0
-236 -341 0
-237 -342 0
-238 -343 0
-239 -344 0
-240 -345 0
-241 -326 0
-242 -327 0
-243 -328 0
-244 -329 0
-245 -330 0
-241 -381 0
-242 -382 0
-243 -383 0
-244 -384 0
-245 -385 0
-241 -391 0
-242 -392 0
-243 -393 0
-244 -394 0
-245 -395 0
-241 -451 0
-242 -452 0
-243 -453 0
-244 -454 0
-245 -455 0
-241 -471 0
-242 -472 0
-243 -473 0
-244 -474 0
-245 -475 0
-246 -316 0
-247 -317 0
-248 -318 0
-249 -319 0
-250 -320 0
-246 -371 0
-247 -372 0
-248 -373 0
-249 -374 0
-250 -375 0
-246 -451 0
-247 -452 0
-248 -453 0
-249 -454 0
-250 -455 0
-246 -476 0
-247 -477 0
-248 -478 0
-249 -479 0
-250 -480 0
-251 -281 0
-252 -282 0
-253 -283 0
-254 -284 0
-255 -285 0
-251 -296 0
-252 -297 0
-253 -298 0
-254 -299 0
-255 -300 0
-251 -441 0
-252 -442 0
-253 -443 0
-254 -444 0
-255 -445 0
-256 -281 0
-257 -282 0
-258 -283 0
-259 -284 0
-260 -285 0
-256 -321 0
-257 -322 0
-258 -323 0
-259 -324 0
-260 -325 0
-256 -331 0
-257 -332 0
-258 -333 0
-259 -334 0
-260 -335 0
-256 -336 0
-257 -337 0
-258 -338 0
-259 -339 0
-260 -340 0
-256 -386 0
-257 -387 0
-258 -388 0
-259 -389 0
-260 -390 0
-256 -411 0
-257 -412 0
-258 -413 0
-259 -414 0
-260 -415 0
-256 -476 0
-257 -477 0
-258 -478 0
-259 -479 0
-260 -480 0
-261 -291 0
-262 -292 0
-263 -293 0
-264 -294 0
-265 -295 0
-261 -331 0
-262 -332 0
-263 -333 0
-264 -334 0
-265 -335 0
-261 -376 0
-262 -377 0
-263 -378 0
-264 -379 0
-265 -380 0
-261 -471 0
-262 -472 0
-263 -473 0
-264 -474 0
-265 -475 0
-266 -451 0
-267 -452 0
-268 -453 0
-269 -454 0
-270 -455 0
-266 -496 0
-267 -497 0
-268 -498 0
-269 -499 0
-270 -500 0
-271 -321 0
-272 -322 0
-273 -323 0
-274 -324 0
-275 -325 0
-271 -336 0
-272 -337 0
-273 -338 0
-274 -339 0
-275 -340 0
-271 -371 0
-272 -372 0
-273 -373 0
-274 -374 0
-275 -375 0
-271 -456 0
-272 -457 0
-273 -458 0
-274 -459 0
-275 -460 0
-276 -306 0
-277 -307 0
-278 -308 0
-279 -309 0
-280 -310 0
-276 -421 0
-277 -422 0
-278 -423 0
-279 -424 0
-280 -425 0
-276 -496 0
-277 -497 0
-278 -498 0
-279 -499 0
-280 -500 0
-281 -446 0
-282 -447 0
-283 -448 0
-284 -449 0
-285 -450 0
-286 -356 0
-287 -357 0
-288 -358 0
-289 -359 0
-290 -360 0
-286 -456 0
-287 -457 0
-288 -458 0
-289 -459 0
-290 -460 0
-291 -326 0
-292 -327 0
-293 -328 0
-294 -329 0
-295 -330 0
-291 -346 0
-292 -347 0
-293 -348 0
-294 -349 0
-295 -350 0
-291 -386 0
-292 -387 0
-293 -388 0
-294 -389 0
-295 -390 0
-291 -431 0
-292 -432 0
-293 -433 0
-294 -434 0
-295 -435 0
-291 -451 0
-292 -452 0
-293 -453 0
-294 -454 0
-295 -455 0
-291 -461 0
-292 -462 0
-293 -463 0
-294 -464 0
-295 -465 0
-291 -481 0
-292 -482 0
-293 -483 0
-294 -484 0
-295 -485 0
-296 -326 0
-297 -327 0
-298 -328 0
-299 -329 0
-300 -330 0
-301 -356 0
-302 -357 0
-303 -358 0
-304 -359 0
-305 -360 0
-301 -386 0
-302 -387 0
-303 -388 0
-304 -389 0
-305 -390 0
-301 -416 0
-302 -417 0
-303 -418 0
-304 -419 0
-305 -420 0
-301 -441 0
-302 -442 0
-303 -443 0
-304 -444 0
-305 -445 0
-306 -446 0
-307 -447 0
-308 -448 0
-309 -449 0
-310 -450 0
-306 -461 0
-307 -462 0
-308 -463 0
-309 -464 0
-310 -465 0
-306 -496 0
-307 -497 0
-308 -498 0
-309 -499 0
-310 -500 0
-316 -371 0
-317 -372 0
-318 -373 0
-319 -374 0
-320 -375 0
-316 -406 0
-317 -407 0
-318 -408 0
-319 -409 0
-320 -410 0
-321 -486 0
-322 -487 0
-323 -488 0
-324 -489 0
-325 -490 0
-326 -351 0
-327 -352 0
-328 -353 0
-329 -354 0
-330 -355 0
-326 -461 0
-327 -462 0
-328 -463 0
-329 -464 0
-330 -465 0
-331 -361 0
-332 -362 0
-333 -363 0
-334 -364 0
-335 -365 0
-331 -376 0
-332 -377 0
-333 -378 0
-334 -379 0
-335 -380 0
-331 -386 0
-332 -387 0
-333 -388 0
-334 -389 0
-335 -390 0
-331 -391 0
-332 -392 0
-333 -393 0
-334 -394 0
-335 -395 0
-331 -486 0
-332 -487 0
-333 -488 0
-334 -489 0
-335 -490 0
-336 -441 0
-337 -442 0
-338 -443 0
-339 -444 0
-340 -445 0
-336 -451 0
-337 -452 0
-338 -453 0
-339 -454 0
-340 -455 0
-336 -471 0
-337 -472 0
-338 -473 0
-339 -474 0
-340 -475 0
-351 -381 0
-352 -382 0
-353 -383 0
-354 -384 0
-355 -385 0
-351 -411 0
-352 -412 0
-353 -413 0
-354 -414 0
-355 -415 0
-351 -461 0
-352 -462 0
-353 -463 0
-354 -464 0
-355 -465 0
-361 -421 0
-362 -422 0
-363 -423 0
-364 -424 0
-365 -425 0
-361 -491 0
-362 -492 0
-363 -493 0
-364 -494 0
-365 -495 0
-366 -441 0
-367 -442 0
-368 -443 0
-369 -444 0
-370 -445 0
-371 -396 0
-372 -397 0
-373 -398 0
-374 -399 0
-375 -400 0
-371 -401 0
-372 -402 0
-373 -403 0
-374 -404 0
-375 -405 0
-371 -406 0
-372 -407 0
-373 -408 0
-374 -409 0
-375 -410 0
-371 -461 0
-372 -462 0
-373 -463 0
-374 -464 0
-375 -465 0
-376 -416 0
-377 -417 0
-378 -418 0
-379 -419 0
-380 -420 0
-381 -426 0
-382 -427 0
-383 -428 0
-384 -429 0
-385 -430 0
-381 -431 0
-382 -432 0
-383 -433 0
-384 -434 0
-385 -435 0
-381 -471 0
-382 -472 0
-383 -473 0
-384 -474 0
-385 -475 0
-381 -476 0
-382 -477 0
-383 -478 0
-384 -479 0
-385 -480 0
-386 -431 0
-387 -432 0
-388 -433 0
-389 -434 0
-390 -435 0
-386 -486 0
-387 -487 0
-388 -488 0
-389 -489 0
-390 -490 0
-391 -426 0
-392 -427 0
-393 -428 0
-394 -429 0
-395 -430 0
-391 -491 0
-392 -492 0
-393 -493 0
-394 -494 0
-395 -495 0
-401 -446 0
-402 -447 0
-403 -448 0
-404 -449 0
-405 -450 0
-401 -456 0
-402 -457 0
-403 -458 0
-404 -459 0
-405 -460 0
-401 -486 0
-402 -487 0
-403 -488 0
-404 -489 0
-405 -490 0
-411 -446 0
-412 -447 0
-413 -448 0
-414 -449 0
-415 -450 0
-411 -461 0
-412 -462 0
-413 -463 0
-414 -464 0
-415 -465 0
-416 -451 0
-417 -452 0
-418 -453 0
-419 -454 0
-420 -455 0
-421 -496 0
-422 -497 0
-423 -498 0
-424 -499 0
-425 -500 0
-426 -481 0
-427 -482 0
-428 -483 0
-429 -484 0
-430 -485 0
-441 -481 0
-442 -482 0
-443 -483 0
-444 -484 0
-445 -485 0
-451 -496 0
-452 -497 0
-453 -498 0
-454 -499 0
-455 -500 0
